CapLotSizing_PM/src/Instancias/TCLSHT/6i6p2m/NBA04.OUT
 CG ITER, OVMR, OVMRUB =           1    8782.8759766    8782.8759766
 CG ITER, OVMR, OVMRUB =           2    8394.5976562    8394.5966797
 CG ITER, OVMR, OVMRUB =           3    8058.0029297    8394.5966797
 CG ITER, OVMR, OVMRUB =           4    7942.9301758    8394.5966797
 CG ITER, OVMR, OVMRUB =           5    7795.5288086    8334.8037109
 CG ITER, OVMR, OVMRUB =           6    7774.4218750    8334.8037109
 CG ITER, OVMR, OVMRUB =           7    7764.5830078    8334.8037109
 CG ITER, OVMR, OVMRUB =           8    7746.9033203    8334.8037109
 CG ITER, OVMR, OVMRUB =           9    7745.0986328    8334.8037109
 CG ITER, OVMR, OVMRUB =          10    7744.4252930    8334.8037109
 CG ITER, OVMR, OVMRUB =          11    7744.6811523    8288.4511719
 CG ITER, OVMR, OVMRUB =          12    7744.6713867    8288.4511719
 CG ITER, OVMR, OVMRUB =          13    7744.6713867    8288.4511719
OVLB =    7744.6713867 OVLUB =    8288.4511719 TIME =       0.4500000
